s td 40 16 55
b 1 18 34 38
b 2 13 19 32
b 3 8 37 55
b 4 9 15 23 46
b 5 4 34 36 38
b 6 17 22 49 52
b 7 1 4 5 9 26 27 30 31 32 37 38 46 47 49 50 53
b 8 4 5 9 12 26 27 30 31 32 37 38 46 47 49 50 53
b 9 4 5 9 12 26 27 30 31 32 37 38 45 46 47 50 53
b 10 5 6 9 12 27 30 31 32 37 38 45 46 47 50 53
b 11 6 9 12 27 30 31 32 38 40 45 46 47 50 53
b 12 6 9 12 23 27 30 40 46 47 50 53
b 13 6 11 12 23 27 30 40 46 50 53
b 14 6 11 23 25 27 30 46 50 53
b 15 6 11 23 25 27 30 43 46
b 16 2 11 23 27 30 43 46
b 17 2 11 24 27 43
b 18 27 38 40 51
b 19 5 6 31 35 37 38 46
b 20 4 16 30 31 32 37 45
b 21 13 16 31 32 45
b 22 12 27 37 39 46 47 49 53
b 23 7 37 39 47 49 53
b 24 1 4 5 9 21 26 27 30 31 32 37 38 46 49 50 53
b 25 1 4 5 9 17 21 26 27 30 31 32 38 46 49 50 53
b 26 1 4 9 17 21 26 27 30 31 32 34 38 46 49 50 53
b 27 1 9 17 21 27 29 30 31 32 34 38 46 49 50 53
b 28 1 9 10 17 29 30 31 32 34 38 46 49 50 53
b 29 1 10 17 29 31 32 34 38 44 46 49 50 53
b 30 3 34 44 50
b 31 17 29 31 32 38 44 46 49 50 54
b 32 17 22 29 31 32 46 49 50 54
b 33 20 22 29 31 32 50 54
b 34 14 20 29 32 50
b 35 17 22 28 54
b 36 9 27 29 33 50
b 37 5 9 17 26 38 41 50
b 38 1 5 21 27 31 32 37 38 42 46
b 39 21 32 37 38 42 46 48
b 40 4 5 8 37
1 26
2 21
3 40
4 12
5 26
6 32
7 8
7 24
7 40
8 9
8 22
9 10
9 20
10 11
10 19
11 12
11 18
12 13
13 14
14 15
15 16
16 17
20 21
22 23
24 25
24 38
25 26
25 37
26 27
27 28
27 36
28 29
29 30
29 31
31 32
32 33
32 35
33 34
38 39
